Minimize
	value: tt

Subject to
tt + 500 s_1_1 > 0
tt - t_1_1 - 501.500000 s_1_1 + 1.500000 s_1_6 > -497.519200
tt + 500 s_2_1 > 0
tt - t_2_1 - 503.000000 s_2_1 + 3.000000 s_2_6 > -491.272104
tt + 500 s_1_2 > 0
tt - t_1_2 - 502.167000 s_1_2 + 2.167000 s_1_7 > -497.015689
tt + 500 s_2_2 > 0
tt - t_2_2 - 504.334000 s_2_2 + 4.334000 s_2_7 > -490.751904
tt + 500 s_1_3 > 0
tt - t_1_3 - 502.167000 s_1_3 + 2.167000 s_1_7 > -496.704800
tt + 500 s_2_3 > 0
tt - t_2_3 - 504.334000 s_2_3 + 4.334000 s_2_7 > -486.012277
tt + 500 s_1_4 > 0
tt - t_1_4 - 510.129556 s_1_4 + 10.129556 s_1_3 > -498.539956
tt + 500 s_2_4 > 0
tt - t_2_4 - 520.259111 s_2_4 + 20.259111 s_2_3 > -492.336025
tt + 500 s_1_5 > 0
tt - t_1_5 - 507.334000 s_1_5 + 7.334000 s_1_6 > -497.781644
tt + 500 s_2_5 > 0
tt - t_2_5 - 514.668000 s_2_5 + 14.668000 s_2_6 > -490.380647
tt + 500 s_1_6 > 0
tt - t_1_6 - 500.000000 s_1_6 > -495.095100
tt + 500 s_2_6 > 0
tt - t_2_6 - 500.000000 s_2_6 > -493.318300
tt + 500 s_1_7 > 0
tt - t_1_7 - 500.000000 s_1_7 > -494.933289
tt + 500 s_2_7 > 0
tt - t_2_7 - 500.000000 s_2_7 > -491.996378
tt + 500 s_1_8 > 0
tt - t_1_8 - 557.955556 s_1_8 + 57.955556 s_1_2 > -499.713600
tt + 500 s_2_8 > 0
tt - t_2_8 - 615.911111 s_2_8 + 115.911111 s_2_2 > -495.741300
s_1_1 + s_2_1  = 1
s_1_2 + s_2_2  = 1
s_1_3 + s_2_3  = 1
s_1_4 + s_2_4  = 1
s_1_5 + s_2_5  = 1
s_1_6 + s_2_6  = 1
s_1_7 + s_2_7  = 1
s_1_8 + s_2_8  = 1
t_1_1 - t_1_2 + 500.000000 u_1_1_2 - 2.167000 s_1_2 + 2.167000 s_1_7 > 2.984311
t_1_2 - t_1_1 - 500.000000 u_1_1_2 > -497.519200
t_2_1 - t_2_2 + 500.000000 u_2_1_2 - 4.334000 s_2_2 + 4.334000 s_2_7 > 9.248096
t_2_2 - t_2_1 - 500.000000 u_2_1_2 > -491.272104
t_1_1 - t_1_3 + 500.000000 u_1_1_3 - 2.167000 s_1_3 + 2.167000 s_1_7 > 3.295200
t_1_3 - t_1_1 - 500.000000 u_1_1_3 > -497.519200
t_2_1 - t_2_3 + 500.000000 u_2_1_3 - 4.334000 s_2_3 + 4.334000 s_2_7 > 13.987723
t_2_3 - t_2_1 - 500.000000 u_2_1_3 > -491.272104
t_1_1 - t_1_4 + 500.000000 u_1_1_4 - 5.064778 s_1_4 + 5.064778 s_1_3 > 1.460044
t_1_4 - t_1_1 - 500.000000 u_1_1_4 > -497.519200
t_2_1 - t_2_4 + 500.000000 u_2_1_4 - 10.129556 s_2_4 + 10.129556 s_2_3 > 7.663975
t_2_4 - t_2_1 - 500.000000 u_2_1_4 > -491.272104
t_1_1 - t_1_5 + 500.000000 u_1_1_5 - 3.667000 s_1_5 + 3.667000 s_1_6 > 2.218356
t_1_5 - t_1_1 - 500.000000 u_1_1_5 > -497.519200
t_2_1 - t_2_5 + 500.000000 u_2_1_5 - 7.334000 s_2_5 + 7.334000 s_2_6 > 9.619353
t_2_5 - t_2_1 - 500.000000 u_2_1_5 > -491.272104
t_1_1 - t_1_6 - 500.000000 s_1_6 > -488.232656
t_1_1 - t_2_6 - 500.000000 s_2_6 > -479.593411
t_2_1 - t_1_6 - 500.000000 s_1_6 > -488.232656
t_2_1 - t_2_6 - 500.000000 s_2_6 > -479.593411
t_1_1 - t_1_7 + 500.000000 u_1_1_7 > 5.066711
t_1_7 - t_1_1 - 500.000000 u_1_1_7 > -497.519200
t_2_1 - t_2_7 + 500.000000 u_2_1_7 > 8.003622
t_2_7 - t_2_1 - 500.000000 u_2_1_7 > -491.272104
t_1_8 - t_1_1 - 500.000000 s_1_1 > -496.019200
t_1_8 - t_2_1 - 500.000000 s_2_1 > -488.272104
t_2_8 - t_1_1 - 500.000000 s_1_1 > -496.019200
t_2_8 - t_2_1 - 500.000000 s_2_1 > -488.272104
t_1_2 - t_1_1 + 500.000000 u_1_2_1 - 1.500000 s_1_1 + 1.500000 s_1_6 > 2.480800
t_1_1 - t_1_2 - 500.000000 u_1_2_1 > -497.015689
t_2_2 - t_2_1 + 500.000000 u_2_2_1 - 3.000000 s_2_1 + 3.000000 s_2_6 > 8.727896
t_2_1 - t_2_2 - 500.000000 u_2_2_1 > -490.751904
t_1_2 - t_1_3 + 500.000000 u_1_2_3 - 2.167000 s_1_3 + 2.167000 s_1_7 > 3.295200
t_1_3 - t_1_2 - 500.000000 u_1_2_3 > -497.015689
t_2_2 - t_2_3 + 500.000000 u_2_2_3 - 4.334000 s_2_3 + 4.334000 s_2_7 > 13.987723
t_2_3 - t_2_2 - 500.000000 u_2_2_3 > -490.751904
t_1_2 - t_1_4 + 500.000000 u_1_2_4 - 5.064778 s_1_4 + 5.064778 s_1_3 > 1.460044
t_1_4 - t_1_2 - 500.000000 u_1_2_4 > -497.015689
t_2_2 - t_2_4 + 500.000000 u_2_2_4 - 10.129556 s_2_4 + 10.129556 s_2_3 > 7.663975
t_2_4 - t_2_2 - 500.000000 u_2_2_4 > -490.751904
t_1_2 - t_1_5 + 500.000000 u_1_2_5 - 3.667000 s_1_5 + 3.667000 s_1_6 > 2.218356
t_1_5 - t_1_2 - 500.000000 u_1_2_5 > -497.015689
t_2_2 - t_2_5 + 500.000000 u_2_2_5 - 7.334000 s_2_5 + 7.334000 s_2_6 > 9.619353
t_2_5 - t_2_2 - 500.000000 u_2_2_5 > -490.751904
t_1_2 - t_1_6 + 500.000000 u_1_2_6 > 4.904900
t_1_6 - t_1_2 - 500.000000 u_1_2_6 > -497.015689
t_2_2 - t_2_6 + 500.000000 u_2_2_6 > 6.681700
t_2_6 - t_2_2 - 500.000000 u_2_2_6 > -490.751904
t_1_2 - t_1_7 - 500.000000 s_1_7 > -488.070844
t_1_2 - t_2_7 - 500.000000 s_2_7 > -478.271489
t_2_2 - t_1_7 - 500.000000 s_1_7 > -488.070844
t_2_2 - t_2_7 - 500.000000 s_2_7 > -478.271489
t_1_8 - t_1_2 - 500.000000 s_1_2 > -494.848689
t_1_8 - t_2_2 - 500.000000 s_2_2 > -486.417904
t_2_8 - t_1_2 - 500.000000 s_1_2 > -494.848689
t_2_8 - t_2_2 - 500.000000 s_2_2 > -486.417904
t_1_3 - t_1_1 + 500.000000 u_1_3_1 - 1.500000 s_1_1 + 1.500000 s_1_6 > 2.480800
t_1_1 - t_1_3 - 500.000000 u_1_3_1 > -496.704800
t_2_3 - t_2_1 + 500.000000 u_2_3_1 - 3.000000 s_2_1 + 3.000000 s_2_6 > 8.727896
t_2_1 - t_2_3 - 500.000000 u_2_3_1 > -486.012277
t_1_3 - t_1_2 + 500.000000 u_1_3_2 - 2.167000 s_1_2 + 2.167000 s_1_7 > 2.984311
t_1_2 - t_1_3 - 500.000000 u_1_3_2 > -496.704800
t_2_3 - t_2_2 + 500.000000 u_2_3_2 - 4.334000 s_2_2 + 4.334000 s_2_7 > 9.248096
t_2_2 - t_2_3 - 500.000000 u_2_3_2 > -486.012277
t_1_4 - t_1_3 - 500.000000 s_1_3 > -494.537800
t_1_4 - t_2_3 - 500.000000 s_2_3 > -481.678277
t_2_4 - t_1_3 - 500.000000 s_1_3 > -494.537800
t_2_4 - t_2_3 - 500.000000 s_2_3 > -481.678277
t_1_3 - t_1_5 + 500.000000 u_1_3_5 - 3.667000 s_1_5 + 3.667000 s_1_6 > 2.218356
t_1_5 - t_1_3 - 500.000000 u_1_3_5 > -496.704800
t_2_3 - t_2_5 + 500.000000 u_2_3_5 - 7.334000 s_2_5 + 7.334000 s_2_6 > 9.619353
t_2_5 - t_2_3 - 500.000000 u_2_3_5 > -486.012277
t_1_3 - t_1_6 + 500.000000 u_1_3_6 > 4.904900
t_1_6 - t_1_3 - 500.000000 u_1_3_6 > -496.704800
t_2_3 - t_2_6 + 500.000000 u_2_3_6 > 6.681700
t_2_6 - t_2_3 - 500.000000 u_2_3_6 > -486.012277
t_1_3 - t_1_7 - 500.000000 s_1_7 > -488.070844
t_1_3 - t_2_7 - 500.000000 s_2_7 > -478.271489
t_2_3 - t_1_7 - 500.000000 s_1_7 > -488.070844
t_2_3 - t_2_7 - 500.000000 s_2_7 > -478.271489
t_1_8 - t_1_3 - 500.000000 s_1_3 > -494.537800
t_1_8 - t_2_3 - 500.000000 s_2_3 > -481.678277
t_2_8 - t_1_3 - 500.000000 s_1_3 > -494.537800
t_2_8 - t_2_3 - 500.000000 s_2_3 > -481.678277
t_1_4 - t_1_1 + 500.000000 u_1_4_1 - 1.500000 s_1_1 + 1.500000 s_1_6 > 2.480800
t_1_1 - t_1_4 - 500.000000 u_1_4_1 > -498.539956
t_2_4 - t_2_1 + 500.000000 u_2_4_1 - 3.000000 s_2_1 + 3.000000 s_2_6 > 8.727896
t_2_1 - t_2_4 - 500.000000 u_2_4_1 > -492.336025
t_1_4 - t_1_2 + 500.000000 u_1_4_2 - 2.167000 s_1_2 + 2.167000 s_1_7 > 2.984311
t_1_2 - t_1_4 - 500.000000 u_1_4_2 > -498.539956
t_2_4 - t_2_2 + 500.000000 u_2_4_2 - 4.334000 s_2_2 + 4.334000 s_2_7 > 9.248096
t_2_2 - t_2_4 - 500.000000 u_2_4_2 > -492.336025
t_1_4 - t_1_3 - 500.000000 s_1_3 > -494.537800
t_1_4 - t_2_3 - 500.000000 s_2_3 > -481.678277
t_2_4 - t_1_3 - 500.000000 s_1_3 > -494.537800
t_2_4 - t_2_3 - 500.000000 s_2_3 > -481.678277
t_1_4 - t_1_5 + 500.000000 u_1_4_5 - 3.667000 s_1_5 + 3.667000 s_1_6 > 2.218356
t_1_5 - t_1_4 - 500.000000 u_1_4_5 > -498.539956
t_2_4 - t_2_5 + 500.000000 u_2_4_5 - 7.334000 s_2_5 + 7.334000 s_2_6 > 9.619353
t_2_5 - t_2_4 - 500.000000 u_2_4_5 > -492.336025
t_1_4 - t_1_6 + 500.000000 u_1_4_6 > 4.904900
t_1_6 - t_1_4 - 500.000000 u_1_4_6 > -498.539956
t_2_4 - t_2_6 + 500.000000 u_2_4_6 > 6.681700
t_2_6 - t_2_4 - 500.000000 u_2_4_6 > -492.336025
t_1_4 - t_1_7 - 500.000000 s_1_7 > -488.070844
t_1_4 - t_2_7 - 500.000000 s_2_7 > -478.271489
t_2_4 - t_1_7 - 500.000000 s_1_7 > -488.070844
t_2_4 - t_2_7 - 500.000000 s_2_7 > -478.271489
t_1_8 - t_1_4 - 500.000000 s_1_4 > -493.475178
t_1_8 - t_2_4 - 500.000000 s_2_4 > -482.206469
t_2_8 - t_1_4 - 500.000000 s_1_4 > -493.475178
t_2_8 - t_2_4 - 500.000000 s_2_4 > -482.206469
t_1_5 - t_1_1 + 500.000000 u_1_5_1 - 1.500000 s_1_1 + 1.500000 s_1_6 > 2.480800
t_1_1 - t_1_5 - 500.000000 u_1_5_1 > -497.781644
t_2_5 - t_2_1 + 500.000000 u_2_5_1 - 3.000000 s_2_1 + 3.000000 s_2_6 > 8.727896
t_2_1 - t_2_5 - 500.000000 u_2_5_1 > -490.380647
t_1_5 - t_1_2 + 500.000000 u_1_5_2 - 2.167000 s_1_2 + 2.167000 s_1_7 > 2.984311
t_1_2 - t_1_5 - 500.000000 u_1_5_2 > -497.781644
t_2_5 - t_2_2 + 500.000000 u_2_5_2 - 4.334000 s_2_2 + 4.334000 s_2_7 > 9.248096
t_2_2 - t_2_5 - 500.000000 u_2_5_2 > -490.380647
t_1_5 - t_1_3 + 500.000000 u_1_5_3 - 2.167000 s_1_3 + 2.167000 s_1_7 > 3.295200
t_1_3 - t_1_5 - 500.000000 u_1_5_3 > -497.781644
t_2_5 - t_2_3 + 500.000000 u_2_5_3 - 4.334000 s_2_3 + 4.334000 s_2_7 > 13.987723
t_2_3 - t_2_5 - 500.000000 u_2_5_3 > -490.380647
t_1_5 - t_1_4 + 500.000000 u_1_5_4 - 5.064778 s_1_4 + 5.064778 s_1_3 > 1.460044
t_1_4 - t_1_5 - 500.000000 u_1_5_4 > -497.781644
t_2_5 - t_2_4 + 500.000000 u_2_5_4 - 10.129556 s_2_4 + 10.129556 s_2_3 > 7.663975
t_2_4 - t_2_5 - 500.000000 u_2_5_4 > -490.380647
t_1_5 - t_1_6 - 500.000000 s_1_6 > -488.232656
t_1_5 - t_2_6 - 500.000000 s_2_6 > -479.593411
t_2_5 - t_1_6 - 500.000000 s_1_6 > -488.232656
t_2_5 - t_2_6 - 500.000000 s_2_6 > -479.593411
t_1_5 - t_1_7 - 500.000000 s_1_7 > -488.070844
t_1_5 - t_2_7 - 500.000000 s_2_7 > -478.271489
t_2_5 - t_1_7 - 500.000000 s_1_7 > -488.070844
t_2_5 - t_2_7 - 500.000000 s_2_7 > -478.271489
t_1_8 - t_1_5 - 500.000000 s_1_5 > -494.114644
t_1_8 - t_2_5 - 500.000000 s_2_5 > -483.046647
t_2_8 - t_1_5 - 500.000000 s_1_5 > -494.114644
t_2_8 - t_2_5 - 500.000000 s_2_5 > -483.046647
t_1_1 - t_1_6 - 500.000000 s_1_6 > -488.232656
t_1_1 - t_2_6 - 500.000000 s_2_6 > -479.593411
t_2_1 - t_1_6 - 500.000000 s_1_6 > -488.232656
t_2_1 - t_2_6 - 500.000000 s_2_6 > -479.593411
t_1_6 - t_1_2 + 500.000000 u_1_6_2 - 2.167000 s_1_2 + 2.167000 s_1_7 > 2.984311
t_1_2 - t_1_6 - 500.000000 u_1_6_2 > -495.095100
t_2_6 - t_2_2 + 500.000000 u_2_6_2 - 4.334000 s_2_2 + 4.334000 s_2_7 > 9.248096
t_2_2 - t_2_6 - 500.000000 u_2_6_2 > -493.318300
t_1_6 - t_1_3 + 500.000000 u_1_6_3 - 2.167000 s_1_3 + 2.167000 s_1_7 > 3.295200
t_1_3 - t_1_6 - 500.000000 u_1_6_3 > -495.095100
t_2_6 - t_2_3 + 500.000000 u_2_6_3 - 4.334000 s_2_3 + 4.334000 s_2_7 > 13.987723
t_2_3 - t_2_6 - 500.000000 u_2_6_3 > -493.318300
t_1_6 - t_1_4 + 500.000000 u_1_6_4 - 5.064778 s_1_4 + 5.064778 s_1_3 > 1.460044
t_1_4 - t_1_6 - 500.000000 u_1_6_4 > -495.095100
t_2_6 - t_2_4 + 500.000000 u_2_6_4 - 10.129556 s_2_4 + 10.129556 s_2_3 > 7.663975
t_2_4 - t_2_6 - 500.000000 u_2_6_4 > -493.318300
t_1_5 - t_1_6 - 500.000000 s_1_6 > -488.232656
t_1_5 - t_2_6 - 500.000000 s_2_6 > -479.593411
t_2_5 - t_1_6 - 500.000000 s_1_6 > -488.232656
t_2_5 - t_2_6 - 500.000000 s_2_6 > -479.593411
t_1_6 - t_1_7 + 500.000000 u_1_6_7 > 5.066711
t_1_7 - t_1_6 - 500.000000 u_1_6_7 > -495.095100
t_2_6 - t_2_7 + 500.000000 u_2_6_7 > 8.003622
t_2_7 - t_2_6 - 500.000000 u_2_6_7 > -493.318300
t_1_7 - t_1_1 + 500.000000 u_1_7_1 - 1.500000 s_1_1 + 1.500000 s_1_6 > 2.480800
t_1_1 - t_1_7 - 500.000000 u_1_7_1 > -494.933289
t_2_7 - t_2_1 + 500.000000 u_2_7_1 - 3.000000 s_2_1 + 3.000000 s_2_6 > 8.727896
t_2_1 - t_2_7 - 500.000000 u_2_7_1 > -491.996378
t_1_2 - t_1_7 - 500.000000 s_1_7 > -488.070844
t_1_2 - t_2_7 - 500.000000 s_2_7 > -478.271489
t_2_2 - t_1_7 - 500.000000 s_1_7 > -488.070844
t_2_2 - t_2_7 - 500.000000 s_2_7 > -478.271489
t_1_3 - t_1_7 - 500.000000 s_1_7 > -488.070844
t_1_3 - t_2_7 - 500.000000 s_2_7 > -478.271489
t_2_3 - t_1_7 - 500.000000 s_1_7 > -488.070844
t_2_3 - t_2_7 - 500.000000 s_2_7 > -478.271489
t_1_4 - t_1_7 - 500.000000 s_1_7 > -488.070844
t_1_4 - t_2_7 - 500.000000 s_2_7 > -478.271489
t_2_4 - t_1_7 - 500.000000 s_1_7 > -488.070844
t_2_4 - t_2_7 - 500.000000 s_2_7 > -478.271489
t_1_5 - t_1_7 - 500.000000 s_1_7 > -488.070844
t_1_5 - t_2_7 - 500.000000 s_2_7 > -478.271489
t_2_5 - t_1_7 - 500.000000 s_1_7 > -488.070844
t_2_5 - t_2_7 - 500.000000 s_2_7 > -478.271489
t_1_7 - t_1_6 + 500.000000 u_1_7_6 > 4.904900
t_1_6 - t_1_7 - 500.000000 u_1_7_6 > -494.933289
t_2_7 - t_2_6 + 500.000000 u_2_7_6 > 6.681700
t_2_6 - t_2_7 - 500.000000 u_2_7_6 > -491.996378
t_1_8 - t_1_1 - 500.000000 s_1_1 > -496.019200
t_1_8 - t_2_1 - 500.000000 s_2_1 > -488.272104
t_2_8 - t_1_1 - 500.000000 s_1_1 > -496.019200
t_2_8 - t_2_1 - 500.000000 s_2_1 > -488.272104
t_1_8 - t_1_2 - 500.000000 s_1_2 > -494.848689
t_1_8 - t_2_2 - 500.000000 s_2_2 > -486.417904
t_2_8 - t_1_2 - 500.000000 s_1_2 > -494.848689
t_2_8 - t_2_2 - 500.000000 s_2_2 > -486.417904
t_1_8 - t_1_3 - 500.000000 s_1_3 > -494.537800
t_1_8 - t_2_3 - 500.000000 s_2_3 > -481.678277
t_2_8 - t_1_3 - 500.000000 s_1_3 > -494.537800
t_2_8 - t_2_3 - 500.000000 s_2_3 > -481.678277
t_1_8 - t_1_4 - 500.000000 s_1_4 > -493.475178
t_1_8 - t_2_4 - 500.000000 s_2_4 > -482.206469
t_2_8 - t_1_4 - 500.000000 s_1_4 > -493.475178
t_2_8 - t_2_4 - 500.000000 s_2_4 > -482.206469
t_1_8 - t_1_5 - 500.000000 s_1_5 > -494.114644
t_1_8 - t_2_5 - 500.000000 s_2_5 > -483.046647
t_2_8 - t_1_5 - 500.000000 s_1_5 > -494.114644
t_2_8 - t_2_5 - 500.000000 s_2_5 > -483.046647
Binary
s_1_1
s_2_1
s_1_2
s_2_2
s_1_3
s_2_3
s_1_4
s_2_4
s_1_5
s_2_5
s_1_6
s_2_6
s_1_7
s_2_7
s_1_8
s_2_8
u_1_1_2
u_2_1_2
u_1_1_3
u_2_1_3
u_1_1_4
u_2_1_4
u_1_1_5
u_2_1_5
u_1_1_7
u_2_1_7
u_1_2_1
u_2_2_1
u_1_2_3
u_2_2_3
u_1_2_4
u_2_2_4
u_1_2_5
u_2_2_5
u_1_2_6
u_2_2_6
u_1_3_1
u_2_3_1
u_1_3_2
u_2_3_2
u_1_3_5
u_2_3_5
u_1_3_6
u_2_3_6
u_1_4_1
u_2_4_1
u_1_4_2
u_2_4_2
u_1_4_5
u_2_4_5
u_1_4_6
u_2_4_6
u_1_5_1
u_2_5_1
u_1_5_2
u_2_5_2
u_1_5_3
u_2_5_3
u_1_5_4
u_2_5_4
u_1_6_2
u_2_6_2
u_1_6_3
u_2_6_3
u_1_6_4
u_2_6_4
u_1_6_7
u_2_6_7
u_1_7_1
u_2_7_1
u_1_7_6
u_2_7_6

End
